(declare-const in20 Int)
(declare-const in22 Int)
(declare-const in21 Int)
(declare-const in24 Int)
(declare-const in23 Int)
(declare-const in26 Int)
(declare-const in25 Int)
(declare-const in28 Int)
(declare-const in27 Int)
(declare-const in0 Int)
(declare-const in2 Int)
(declare-const in1 Int)
(declare-const in4 Int)
(declare-const in3 Int)
(declare-const in6 Int)
(declare-const in5 Int)
(declare-const in8 Int)
(declare-const in7 Int)
(declare-const in11 Int)
(declare-const in10 Int)
(declare-const in9 Int)
(declare-const in13 Int)
(declare-const in12 Int)
(declare-const in15 Int)
(declare-const in14 Int)
(declare-const in17 Int)
(declare-const in16 Int)
(declare-const in19 Int)
(declare-const in18 Int)

(assert (and (and (and (and (and (and (and (and (and (and (and (and (and (and (and (and (and (and (and (and (and (and (and (and (and (and  ( ==  ( -  in2 in1) ( -  in1 in0))  ( ==  ( -  in3 in2) ( -  in2 in1)))  ( ==  ( -  in4 in3) ( -  in3 in2)))  ( ==  ( -  in5 in4) ( -  in4 in3)))  ( ==  ( -  in6 in5) ( -  in5 in4)))  ( ==  ( -  in7 in6) ( -  in6 in5)))  ( ==  ( -  in8 in7) ( -  in7 in6)))  ( ==  ( -  in9 in8) ( -  in8 in7)))  ( ==  ( -  in10 in9) ( -  in9 in8)))  ( ==  ( -  in11 in10) ( -  in10 in9)))  ( ==  ( -  in12 in11) ( -  in11 in10)))  ( ==  ( -  in13 in12) ( -  in12 in11)))  ( ==  ( -  in14 in13) ( -  in13 in12)))  ( ==  ( -  in15 in14) ( -  in14 in13)))  ( ==  ( -  in16 in15) ( -  in15 in14)))  ( ==  ( -  in17 in16) ( -  in16 in15)))  ( ==  ( -  in18 in17) ( -  in17 in16)))  ( ==  ( -  in19 in18) ( -  in18 in17)))  ( ==  ( -  in20 in19) ( -  in19 in18)))  ( ==  ( -  in21 in20) ( -  in20 in19)))  ( ==  ( -  in22 in21) ( -  in21 in20)))  ( ==  ( -  in23 in22) ( -  in22 in21)))  ( ==  ( -  in24 in23) ( -  in23 in22)))  ( ==  ( -  in25 in24) ( -  in24 in23)))  ( ==  ( -  in26 in25) ( -  in25 in24)))  ( ==  ( -  in27 in26) ( -  in26 in25)))  ( ==  ( -  in28 in27) ( -  in27 in26))))

(check-sat)
(get-model)